8
8
0 0 0 0 0 0 0 0
100 200 200 300 400 250 500 300
1 1 1 1 1 1 1 1
0 70 50 100 20 80 0 100 20 40 50 10 30 0 40 50 40 50 0 100 40 80 90 160 0 100 100 150 160 90 100 100 50 0 20 40 10 10 20 10 70 40 40 40 100 20 40 50 0 20 50 10 20 60 40 40 10 20 0 0 10 10 20 30
350 350 350 400 400 400 400 500
2 2 2 2 2 2 2 2
